n_res = 4;
rcap = [4, 12, 106, 94];
rtype = [1, 1, 2, 2];
n_tasks = 14;
modes = [ {1, 2, 3}, {4, 5, 6}, {7, 8, 9}, {10, 11, 12}, {13, 14, 15}, {16, 17, 18}, {19, 20, 21}, {22, 23, 24}, {25, 26, 27}, {28, 29, 30}, {31, 32, 33}, {34, 35, 36}, {37, 38, 39}, {40, 41, 42} ];
succ = [ {7, 8}, {8, 10, 12}, {4, 8}, {5, 11}, {6, 7, 12}, {9, 10}, {9, 10}, {9}, {13, 14}, {13, 14}, {12, 14}, {}, {}, {} ];
n_opt = 42;
dur = [4, 4, 10, 1, 2, 4, 2, 8, 9, 2, 4, 6, 2, 7, 9, 2, 10, 10, 4, 5, 8, 5, 5, 8, 4, 4, 10, 1, 3, 8, 3, 7, 9, 5, 5, 9, 3, 3, 8, 2, 4, 5];
rreq = [|  0,  9,  6,  0,  0,  4,  0,  0,  0,  0,  0,  4,  0,  6,  5,  0,  0,  0, 10,  9,  0,  0,  6,  5,  4,  0,  4,  7,  5,  0,  0,  0,  0,  0,  3,  0,  0,  5,  0,  0,  0,  0
        |  1,  0,  0,  7,  6,  0,  4,  4,  3,  6,  2,  0,  8,  0,  0,  9,  3,  4,  0,  0,  4,  5,  0,  0,  0,  1,  0,  0,  0,  8,  6,  4,  3,  4,  0,  6,  5,  0,  5,  9,  8,  8
        |  3,  4,  2,  9,  8,  5,  5,  5,  2,  3,  3,  2,  9,  7,  3,  9,  5,  4, 10,  9,  9,  9, 10,  6,  8,  8,  7, 10,  8,  7,  9,  8,  6,  7,  7,  6,  5,  6,  3,  7,  3,  1
        |  6,  5,  3,  6,  4,  2,  7,  4,  2,  7,  5,  4,  6,  5,  3, 10,  9,  8,  7,  4,  3,  6,  7,  5,  7,  7,  4,  7,  7,  6,  9,  5,  4,  4,  4,  3,  5,  5,  5,  6,  6,  6 |];
